
Gurobi 7.5.1 (win64, Python) logging started 11/17/17 19:36:42

Academic license - for non-commercial use only
Optimize a model with 2 rows, 2 columns and 4 nonzeros
Coefficient statistics:
  Matrix range     [5e+00, 7e+00]
  Objective range  [3e+03, 4e+03]
  Bounds range     [0e+00, 0e+00]
  RHS range        [5e+00, 1e+01]
Presolve time: 0.05s
Presolved: 2 rows, 2 columns, 4 nonzeros

Iteration    Objective       Primal Inf.    Dual Inf.      Time
       0    0.0000000e+00   1.875000e+00   0.000000e+00      0s
       1    6.0000000e+03   0.000000e+00   0.000000e+00      0s

Solved in 1 iterations and 0.10 seconds
Optimal objective  6.000000000e+03

<<<<<<< HEAD
Gurobi 7.5.1 (win64, Python) logging started 11/18/17 14:07:59
=======
Gurobi 7.5.1 (win64, Python) logging started 11/18/17 13:20:59

Academic license - for non-commercial use only
Optimize a model with 2 rows, 2 columns and 4 nonzeros
Coefficient statistics:
  Matrix range     [5e+00, 7e+00]
  Objective range  [3e+03, 4e+03]
  Bounds range     [0e+00, 0e+00]
  RHS range        [5e+00, 1e+01]
Presolve time: 0.05s
Presolved: 2 rows, 2 columns, 4 nonzeros

Iteration    Objective       Primal Inf.    Dual Inf.      Time
       0    0.0000000e+00   1.875000e+00   0.000000e+00      0s
       1    6.0000000e+03   0.000000e+00   0.000000e+00      0s

Solved in 1 iterations and 0.10 seconds
Optimal objective  6.000000000e+03

Gurobi 7.5.1 (win64, Python) logging started 11/18/17 13:21:02
>>>>>>> 5ffc8739b58cb7b66fcf75be0570d4962f859fdd

Academic license - for non-commercial use only
Optimize a model with 2 rows, 2 columns and 4 nonzeros
Coefficient statistics:
  Matrix range     [5e+00, 7e+00]
  Objective range  [3e+03, 4e+03]
  Bounds range     [0e+00, 0e+00]
  RHS range        [5e+00, 1e+01]
Presolve time: 0.00s
Presolved: 2 rows, 2 columns, 4 nonzeros

Iteration    Objective       Primal Inf.    Dual Inf.      Time
       0    0.0000000e+00   1.875000e+00   0.000000e+00      0s
       1    6.0000000e+03   0.000000e+00   0.000000e+00      0s

Solved in 1 iterations and 0.00 seconds
Optimal objective  6.000000000e+03

Gurobi 7.5.1 (win64, Python) logging started 11/26/17 17:21:55

Academic license - for non-commercial use only
Optimize a model with 123 rows, 302621 columns and 907863 nonzeros
Coefficient statistics:
  Matrix range     [1e+00, 1e+00]
  Objective range  [1e+00, 1e+00]
  Bounds range     [0e+00, 0e+00]
  RHS range        [1e+00, 1e+00]

Concurrent LP optimizer: dual simplex and barrier
Showing barrier log only...

Presolve time: 0.39s
Presolved: 123 rows, 302621 columns, 907863 nonzeros

Ordering time: 0.00s

Barrier statistics:
 AA' NZ     : 0.000e+00
 Factor NZ  : 1.000e+00
 Factor Ops : 1.000e+00 (less than 1 second per iteration)
 Threads    : 1

                  Objective                Residual
Iter       Primal          Dual         Primal    Dual     Compl     Time
   0   2.54793261e+02  1.83706052e+01  0.00e+00 0.00e+00  2.33e+02     0s
   1   7.77384676e+01  2.30662858e+01  0.00e+00 0.00e+00  2.73e+01     0s
   2   4.10450731e+01  3.73104101e+01  0.00e+00 2.27e-13  1.87e+00     0s
   3   4.10004383e+01  4.09963148e+01  0.00e+00 0.00e+00  2.06e-03     0s
   4   4.10000004e+01  4.09999963e+01  0.00e+00 4.47e-13  2.06e-06     0s
   5   4.10000000e+01  4.10000000e+01  0.00e+00 1.36e-14  2.06e-09     0s
   6   4.10000000e+01  4.10000000e+01  0.00e+00 3.24e-13  2.06e-12     0s

Barrier solved model in 6 iterations and 0.50 seconds
Optimal objective 4.10000000e+01

Crossover log...

       1 DPushes remaining with DInf 0.0000000e+00                 1s
       0 DPushes remaining with DInf 1.1102230e-16                 1s

  302498 PPushes remaining with PInf 0.0000000e+00                 1s
       0 PPushes remaining with PInf 0.0000000e+00                 1s

  Push phase complete: Pinf 0.0000000e+00, Dinf 9.3813846e-15      1s

Iteration    Objective       Primal Inf.    Dual Inf.      Time
  302502    4.1000000e+01   0.000000e+00   0.000000e+00      1s
  302502    4.1000000e+01   0.000000e+00   0.000000e+00      2s

Solved with barrier
Solved in 302502 iterations and 1.56 seconds
Optimal objective  4.100000000e+01

Gurobi 7.5.1 (win64, Python) logging started 11/26/17 17:22:38

Academic license - for non-commercial use only
Optimize a model with 42 rows, 11480 columns and 34440 nonzeros
Coefficient statistics:
  Matrix range     [1e+00, 1e+00]
  Objective range  [1e+00, 1e+00]
  Bounds range     [0e+00, 0e+00]
  RHS range        [1e+00, 1e+00]

Concurrent LP optimizer: dual simplex and barrier
Showing barrier log only...

Presolve time: 0.01s
Presolved: 42 rows, 11480 columns, 34440 nonzeros

Ordering time: 0.00s

Barrier statistics:
 AA' NZ     : 8.610e+02
 Factor NZ  : 9.030e+02 (roughly 5 MBytes of memory)
 Factor Ops : 2.559e+04 (less than 1 second per iteration)
 Threads    : 1

Barrier performed 0 iterations in 0.10 seconds
Barrier solve interrupted - model solved by another algorithm


Solved with dual simplex
Solved in 114 iterations and 0.10 seconds
Optimal objective  1.400000000e+01
